% seed = 6919440

mint = 41;
% maxt = 122;

nActs = 22;
dur = [0,1,3,5,5,10,2,6,10,10,8,10,4,6,3,9,3,9,8,7,3,0];

nSkills = 4;
sreq = [| 0,0,0,0,
	| 0,3,1,0,
	| 0,0,3,1,
	| 0,1,0,1,
	| 0,2,3,0,
	| 0,3,0,3,
	| 0,1,3,0,
	| 0,2,0,2,
	| 2,3,0,0,
	| 3,0,1,0,
	| 0,0,3,2,
	| 0,3,0,2,
	| 3,0,3,0,
	| 0,1,0,2,
	| 0,0,2,2,
	| 1,0,0,2,
	| 0,1,0,2,
	| 3,0,0,1,
	| 1,0,1,0,
	| 0,0,2,2,
	| 2,0,0,1,
	| 0,0,0,0, |];

nResources = 13;
mastery = [| true,false,true,true,
	| true,false,false,false,
	| false,true,false,false,
	| true,true,false,true,
	| true,true,true,false,
	| true,true,true,false,
	| true,false,true,true,
	| true,true,false,true,
	| false,true,false,true,
	| true,false,true,false,
	| true,false,true,false,
	| false,false,true,false,
	| true,true,false,true, |];

nPrecs = 43;
pred = [1,1,1,2,2,2,3,3,3,4,4,4,5,5,6,6,6,7,7,7,8,8,8,9,10,11,11,11,12,12,12,13,13,14,14,15,15,16,17,18,19,20,21];
succ = [2,3,4,11,5,7,21,19,13,9,6,8,9,20,17,18,14,10,21,16,10,12,14,14,13,17,18,15,13,15,16,17,18,15,16,19,21,19,20,20,22,22,22];

nUnrels = 87;
unpred = [2,2,2,2,2,3,3,3,3,3,3,3,3,3,3,3,3,4,4,4,5,5,5,5,5,5,5,5,5,6,6,6,6,6,6,6,7,7,7,7,7,7,8,8,9,9,9,9,9,9,9,10,10,10,10,10,10,10,11,11,11,11,12,13,13,13,13,13,14,14,14,15,15,15,15,16,16,16,16,17,17,17,18,18,19,19,20];
unsucc = [3,4,6,8,12,4,5,6,7,8,9,10,11,12,14,15,16,5,7,11,6,7,8,10,11,12,13,17,18,7,8,9,10,11,12,13,8,9,11,12,14,15,9,11,10,11,12,13,17,18,20,11,12,14,15,16,19,21,12,13,14,16,14,14,15,16,19,21,17,18,20,16,17,18,20,17,18,20,21,18,19,21,19,21,20,21,21];

USEFUL_RES = [{},
	{1,3,4,5,6,7,8,9,10,11,12,13},
	{1,4,5,6,7,8,9,10,11,12,13},
	{1,3,4,5,6,7,8,9,13},
	{1,3,4,5,6,7,8,9,10,11,12,13},
	{1,3,4,5,6,7,8,9,13},
	{1,3,4,5,6,7,8,9,10,11,12,13},
	{1,3,4,5,6,7,8,9,13},
	{1,2,3,4,5,6,7,8,9,10,11,13},
	{1,2,4,5,6,7,8,10,11,12,13},
	{1,4,5,6,7,8,9,10,11,12,13},
	{1,3,4,5,6,7,8,9,13},
	{1,2,4,5,6,7,8,10,11,12,13},
	{1,3,4,5,6,7,8,9,13},
	{1,4,5,6,7,8,9,10,11,12,13},
	{1,2,4,5,6,7,8,9,10,11,13},
	{1,3,4,5,6,7,8,9,13},
	{1,2,4,5,6,7,8,9,10,11,13},
	{1,2,4,5,6,7,8,10,11,12,13},
	{1,4,5,6,7,8,9,10,11,12,13},
	{1,2,4,5,6,7,8,9,10,11,13},
	{}];

POTENTIAL_ACT = [{2,3,4,5,6,7,8,9,10,11,12,13,14,15,16,17,18,19,20,21},
	{9,10,13,16,18,19,21},
	{2,4,5,6,7,8,9,12,14,17},
	{2,3,4,5,6,7,8,9,10,11,12,13,14,15,16,17,18,19,20,21},
	{2,3,4,5,6,7,8,9,10,11,12,13,14,15,16,17,18,19,20,21},
	{2,3,4,5,6,7,8,9,10,11,12,13,14,15,16,17,18,19,20,21},
	{2,3,4,5,6,7,8,9,10,11,12,13,14,15,16,17,18,19,20,21},
	{2,3,4,5,6,7,8,9,10,11,12,13,14,15,16,17,18,19,20,21},
	{2,3,4,5,6,7,8,9,11,12,14,15,16,17,18,20,21},
	{2,3,5,7,9,10,11,13,15,16,18,19,20,21},
	{2,3,5,7,9,10,11,13,15,16,18,19,20,21},
	{2,3,5,7,10,11,13,15,19,20},
	{2,3,4,5,6,7,8,9,10,11,12,13,14,15,16,17,18,19,20,21}];
